(set-option :produce-models true)
(set-option :opt.priority box)


; 1: Red, 2: Yellow, 3: Blue, 4: Green
(define-const A11 Int 1)
(define-const A12 Int 2)
(declare-const A13 Int)
(declare-const A14 Int)
(declare-const A15 Int)
(declare-const A21 Int)
(declare-const A22 Int)
(declare-const A23 Int)
(define-const A24 Int 3)
(declare-const A25 Int)
(declare-const A31 Int)
(define-const A32 Int 3)
(define-const A33 Int 2)
(declare-const A34 Int)
(declare-const A35 Int)
(declare-const A41 Int) 
(define-const A42 Int 4)
(declare-const A43 Int)
(declare-const A44 Int)
(declare-const A45 Int)
(declare-const A51 Int)
(declare-const A52 Int)
(declare-const A53 Int)
(define-const A54 Int 1)
(define-const A55 Int 4)

; corners
(assert (or (= A11 A12) (= A11 A21)))
(assert (or (and (= A11 A12) (not (= A11 A21))) (and (not (= A11 A12)) (= A11 A21))))
(assert (or (= A15 A25) (= A15 A14)))
(assert (or (and (= A11 A12) (not (= A11 A21))) (and (not (= A11 A12)) (= A11 A21))))
(assert (or (= A25 )))

(get-objectives)
(get-model)
(exit)